sat
(:eliminated-vars              1
 :max-memory                   18.15
 :memory                       18.05
 :nlsat-irrational-assignments 1
 :nlsat-propagations           10
 :nlsat-stages                 3
 :num-allocs                   33174
 :rlimit-count                 3151
 :time                         0.00
 :total-time                   0.01)
